
List of user-set options:

                                    Name   Value                used
                           linear_solver = ma57                  yes
                  ma57_automatic_scaling = yes                   yes
                                max_iter = 2000                  yes
                             mu_strategy = adaptive              yes
                             output_file = DynamicOptimization_FtildeStateIPOPTinfo.txt  yes
                             print_level = 5                     yes
                      print_user_options = yes                   yes
                                     tol = 1e-006                yes
This is Ipopt version 3.11.0, running with linear solver ma57.

Number of nonzeros in equality constraint Jacobian...:   379380
Number of nonzeros in inequality constraint Jacobian.:      172
Number of nonzeros in Lagrangian Hessian.............:   149721

Reallocating memory for MA57: lfact (8223916)
Total number of variables............................:    76020
                     variables with only lower bounds:        0
                variables with lower and upper bounds:    76020
                     variables with only upper bounds:        0
Total number of equality constraints.................:    57487
Total number of inequality constraints...............:       87
        inequality constraints with only lower bounds:        0
   inequality constraints with lower and upper bounds:       87
        inequality constraints with only upper bounds:        0

iter    objective    inf_pr   inf_du lg(mu)  ||d||  lg(rg) alpha_du alpha_pr  ls
   0 9.9999900e-003 1.29e+003 7.47e-003   0.0 0.00e+000    -  0.00e+000 0.00e+000   0
   1 2.9699899e-001 8.82e+002 2.77e+001  -4.9 1.24e+000    -  1.05e-002 3.08e-001h  1
   2 7.3707100e-001 5.58e+002 1.76e+001  -4.9 1.22e+000    -  1.94e-001 3.60e-001h  1
   3 1.4224696e+000 1.31e+002 4.26e+000  -5.0 9.22e-001    -  4.30e-001 7.43e-001h  1
   4 1.7004525e+000 2.61e+000 3.01e-001  -5.2 2.78e-001    -  6.68e-001 1.00e+000h  1
   5 1.1977954e+000 1.73e+000 4.72e-001  -5.7 5.03e-001    -  3.04e-001 1.00e+000h  1
   6 1.1249697e+000 4.83e+000 2.44e-001  -5.9 3.16e-001    -  4.85e-001 1.00e+000h  1
   7 1.0476328e+000 1.87e+000 1.13e-001  -6.2 1.74e-001    -  5.43e-001 1.00e+000h  1
   8 9.9355650e-001 5.21e-001 5.01e-002  -6.5 1.47e-001    -  5.59e-001 1.00e+000h  1
   9 9.6800372e-001 1.96e+000 3.59e-002  -6.8 2.71e-001    -  4.61e-001 1.00e+000h  1
iter    objective    inf_pr   inf_du lg(mu)  ||d||  lg(rg) alpha_du alpha_pr  ls
  10 9.6026498e-001 1.35e+000 2.45e-002  -7.1 2.77e-001    -  3.75e-001 6.89e-001h  1
  11 9.5835599e-001 1.20e+000 1.56e-002  -7.3 3.72e-001    -  3.39e-001 1.38e-001h  1
  12 9.5199045e-001 1.05e+000 1.15e-002  -7.5 5.47e-001    -  2.73e-001 3.46e-001h  1
  13 9.5133706e-001 1.01e+000 8.11e-003  -7.6 6.88e-001    -  2.59e-001 3.41e-002h  1
  14 9.4848145e-001 9.08e-001 7.06e-003  -7.8 9.61e-001    -  1.28e-001 1.25e-001h  1
  15 9.3787329e-001 2.51e+000 5.63e-003  -7.8 1.07e+000    -  2.52e-001 4.59e-001h  1
  16 9.3316469e-001 2.66e+000 4.01e-003  -8.0 1.14e+000    -  2.80e-001 2.35e-001h  1
  17 9.3288104e-001 2.63e+000 2.84e-003  -8.1 1.37e+000    -  2.47e-001 1.36e-002h  1
  18 9.3687546e-001 9.07e+000 4.83e-003  -4.3 2.70e+001    -  3.29e-002 1.48e-002f  1
  19 9.4254142e-001 9.54e+000 8.97e-003  -2.3 1.29e+003    -  5.68e-004 1.82e-004f  1
iter    objective    inf_pr   inf_du lg(mu)  ||d||  lg(rg) alpha_du alpha_pr  ls
  20 9.6907079e-001 6.12e+001 2.08e-002  -2.3 3.30e+003  -4.0 2.74e-004 8.08e-004f  1
  21 1.0176873e+000 5.75e+001 2.06e-002  -2.3 3.66e+002  -3.6 1.66e-003 1.30e-003f  1
  22 1.1540161e+000 3.69e+001 3.03e-002  -2.3 1.85e+002  -3.1 2.57e-003 3.31e-003f  1
  23 1.4259221e+000 2.50e+001 4.56e-002  -2.3 8.04e+001  -2.7 2.40e-003 6.09e-003f  1
  24 1.4832378e+000 2.49e+001 4.54e-002  -2.3 8.92e+001  -2.3 1.20e-003 1.40e-003f  1
  25 2.7243573e+000 3.73e+001 5.94e-001  -2.3 2.79e+001  -1.9 2.24e-002 4.45e-002f  1
  26 3.5752714e+000 3.63e+001 5.80e-001  -2.3 3.34e+001  -2.3 3.71e-002 2.54e-002f  1
  27 6.0803305e+000 1.99e+002 5.07e-001  -2.3 3.01e+001  -1.9 1.52e-002 1.16e-001f  1
  28 7.7182015e+000 1.71e+002 5.12e-001  -2.3 1.18e+001  -1.5 9.97e-001 1.39e-001f  1
  29 1.1035652e+001 9.34e+001 3.46e-001  -2.3 7.25e+000  -2.0 7.46e-001 4.58e-001h  1
iter    objective    inf_pr   inf_du lg(mu)  ||d||  lg(rg) alpha_du alpha_pr  ls
  30 1.4707640e+001 4.94e+001 1.77e-001  -2.3 7.72e+000  -2.4 6.08e-001 4.75e-001h  1
  31 2.0324144e+001 9.93e+001 1.10e+000  -2.3 5.62e+000  -2.9 1.00e+000 1.00e+000h  1
  32 2.0860688e+001 1.20e+002 1.89e+000  -2.3 1.81e+001    -  1.00e+000 8.49e-001h  1
  33 2.0971594e+001 4.74e+001 1.41e+000  -2.3 1.48e+001    -  1.00e+000 1.00e+000h  1
  34 2.0978842e+001 3.09e+001 8.78e-001  -2.3 4.74e+000    -  1.00e+000 1.00e+000h  1
  35 2.0982118e+001 8.59e+000 2.68e-001  -2.3 3.84e+000    -  1.00e+000 1.00e+000h  1
  36 2.0985053e+001 4.38e-001 9.09e-003  -2.3 4.59e-001    -  1.00e+000 1.00e+000h  1
  37 1.3013143e+001 4.88e+001 1.18e-001  -8.3 7.97e+000    -  7.79e-001 1.00e+000f  1
  38 1.1485935e+001 2.51e-001 1.62e-003  -3.1 1.87e+000  -3.4 1.00e+000 1.00e+000H  1
  39 1.0896533e+001 5.72e-001 7.75e-005  -3.1 5.89e-001  -3.9 1.00e+000 1.00e+000h  1
iter    objective    inf_pr   inf_du lg(mu)  ||d||  lg(rg) alpha_du alpha_pr  ls
  40 1.0896483e+001 1.21e+000 2.53e-003  -3.1 2.96e+001    -  6.24e-001 6.25e-002h  5
  41 1.0898339e+001 6.73e-001 3.27e-005  -3.1 7.72e-001  -4.4 1.00e+000 1.00e+000h  1
  42 5.6227106e+000 1.30e+002 3.45e-002  -9.1 7.16e+000    -  6.46e-001 1.00e+000f  1
  43 5.1755839e+000 1.03e+001 6.09e-004  -3.6 2.05e+000  -3.9 1.00e+000 1.00e+000h  1
  44 5.1372313e+000 1.90e+000 7.44e-005  -3.6 4.39e-001  -4.4 1.00e+000 1.00e+000h  1
  45 5.1366613e+000 1.43e+000 4.55e-005  -3.6 7.27e-001  -4.9 1.00e+000 1.00e+000h  1
  46 1.9650378e+000 2.25e+001 1.14e-002  -4.9 3.17e+000  -4.5 6.49e-001 1.00e+000f  1
  47 2.4035111e+000 7.11e+000 6.24e-003  -4.2 4.38e-001  -4.0 1.00e+000 1.00e+000h  1
  48 2.3954376e+000 5.73e-002 1.43e-003  -4.2 6.51e-002  -2.7 1.00e+000 1.00e+000h  1
  49 1.6828808e+000 2.48e+000 4.86e-003  -4.6 8.40e-001  -3.2 1.00e+000 8.48e-001f  1
iter    objective    inf_pr   inf_du lg(mu)  ||d||  lg(rg) alpha_du alpha_pr  ls
  50 1.3312816e+000 5.72e+000 4.56e-003  -4.7 3.52e-001  -3.7 1.00e+000 1.00e+000h  1
  51 1.3442195e+000 8.04e+000 4.70e-003  -4.7 7.70e-001  -4.1 8.24e-001 1.00e+000h  1
  52 1.3441902e+000 2.34e+000 1.11e-003  -4.7 5.70e-001  -3.7 1.00e+000 1.00e+000h  1
  53 1.1537077e+000 2.64e+000 3.42e-003  -4.9 8.50e-001  -4.2 1.00e+000 1.00e+000h  1
  54 1.1096771e+000 5.64e+000 6.46e-003  -5.0 1.86e+000  -4.7 6.61e-001 8.12e-001h  1
  55 1.0998777e+000 6.41e-001 1.23e-003  -5.0 5.37e-001  -4.2 1.00e+000 1.00e+000h  1
  56 1.0058850e+000 2.36e+000 3.67e-003  -5.3 1.40e+000  -4.7 9.09e-001 1.00e+000h  1
  57 9.8865275e-001 1.91e-001 5.22e-004  -5.3 3.48e-001  -4.3 1.00e+000 1.00e+000h  1
  58 9.8814861e-001 6.54e-001 4.02e-004  -5.3 7.96e-001  -4.8 1.00e+000 1.00e+000h  1
  59 9.5273223e-001 8.40e-001 4.72e-004  -5.5 1.37e+000  -5.2 1.00e+000 1.00e+000h  1
iter    objective    inf_pr   inf_du lg(mu)  ||d||  lg(rg) alpha_du alpha_pr  ls
  60 9.4482477e-001 9.56e-001 3.07e-003  -5.6 1.20e+000  -4.8 1.00e+000 5.90e-001h  1
  61 9.3936738e-001 9.71e-002 4.16e-004  -5.6 2.02e-001  -4.4 1.00e+000 1.00e+000h  1
  62 9.2437952e-001 6.33e-001 7.38e-005  -5.7 5.13e-001  -4.9 1.00e+000 1.00e+000h  1
  63 9.0305351e-001 5.95e-001 9.60e-005  -6.1 1.95e-001  -4.4 9.93e-001 1.00e+000h  1
  64 8.9742127e-001 2.64e+000 1.29e-004  -6.2 6.32e-001  -4.9 1.00e+000 1.00e+000h  1
  65 9.0136466e-001 3.15e+000 1.76e-003  -5.9 3.64e+000  -5.4 2.43e-001 2.63e-001h  1
  66 8.9835200e-001 7.68e+000 5.60e-004  -6.2 8.50e-001  -5.0 1.00e+000 9.56e-001h  1
  67 8.9618439e-001 3.88e+000 1.53e-003  -6.3 1.28e+000  -5.4 6.42e-001 1.00e+000h  1
  68 9.1873176e-001 2.86e+000 1.10e-002  -5.8 4.37e-001  -4.1 3.92e-001 1.00e+000h  1
  69 9.0255878e-001 9.08e-001 2.32e-004  -6.1 1.15e-001  -3.7 9.87e-001 1.00e+000h  1
iter    objective    inf_pr   inf_du lg(mu)  ||d||  lg(rg) alpha_du alpha_pr  ls
  70 9.0375127e-001 1.22e-001 2.86e-004  -6.1 7.33e-002  -4.2 1.00e+000 1.00e+000h  1
  71 8.9566453e-001 7.89e-001 1.64e-004  -6.3 1.60e-001  -4.6 1.00e+000 1.00e+000h  1
  72 9.0367980e-001 5.23e-001 1.72e-004  -6.1 4.28e-001  -5.1 1.00e+000 1.00e+000h  1
  73 9.0025793e-001 1.70e+000 3.00e-004  -6.1 1.02e+000  -5.6 1.00e+000 1.00e+000h  1
  74 8.9320085e-001 8.08e-001 1.39e-004  -6.4 5.33e-001  -5.2 1.00e+000 1.00e+000h  1
  75 8.9079907e-001 4.83e-001 1.34e-004  -6.6 2.14e-001  -4.8 1.00e+000 1.00e+000h  1
  76 8.9432170e-001 3.07e-001 2.71e-004  -6.4 4.40e-001  -5.2 1.00e+000 1.00e+000h  1
  77 8.9281260e-001 5.39e-002 5.76e-006  -6.5 1.81e-001  -4.8 1.00e+000 1.00e+000h  1
  78 8.9031097e-001 2.69e-001 2.55e-005  -6.7 5.71e-001  -5.3 1.00e+000 1.00e+000h  1
  79 8.9532818e-001 1.04e+000 9.75e-005  -6.3 1.54e+000  -5.8 1.00e+000 1.00e+000h  1
iter    objective    inf_pr   inf_du lg(mu)  ||d||  lg(rg) alpha_du alpha_pr  ls
  80 8.9371141e-001 1.67e-001 2.12e-005  -6.4 5.34e-001  -5.3 1.00e+000 1.00e+000h  1
  81 8.9370913e-001 6.07e-001 5.22e-005  -6.4 1.51e+000  -5.8 1.00e+000 1.00e+000H  1
  82 8.9969468e-001 1.88e+001 3.71e-004  -6.2 3.99e+000  -6.3 1.00e+000 1.00e+000h  1
  83 8.9717604e-001 2.73e-001 5.46e-005  -6.2 2.53e-001  -4.1 1.00e+000 1.00e+000h  1
  84 8.9716062e-001 2.32e-002 1.20e-005  -6.2 6.38e-002  -4.5 1.00e+000 1.00e+000h  1
  85 8.9189966e-001 3.40e-001 1.34e-004  -6.5 2.17e-001  -5.0 1.00e+000 1.00e+000h  1
  86 8.9147630e-001 5.34e-001 1.49e-003  -6.6 6.50e-001  -5.5 1.00e+000 4.11e-001h  1
  87 8.9099090e-001 4.23e-001 4.78e-004  -6.6 1.63e+000  -6.0 1.00e+000 7.93e-001h  1
  88 8.9012774e-001 6.87e+000 1.99e-004  -6.7 4.67e+000  -6.4 9.98e-001 1.00e+000h  1
  89 8.8797920e-001 2.20e+000 3.10e-005  -7.1 1.68e+000  -6.0 1.00e+000 1.00e+000h  1
iter    objective    inf_pr   inf_du lg(mu)  ||d||  lg(rg) alpha_du alpha_pr  ls
  90 8.8726494e-001 4.31e+000 8.63e-004  -7.4 4.66e+000  -6.5 7.17e-001 1.00e+000h  1
  91 8.8683922e-001 9.78e-001 1.56e-005  -7.8 1.70e+000  -6.1 1.00e+000 1.00e+000h  1
  92 8.8810794e-001 1.71e+000 5.54e-003  -6.6 6.47e+000  -6.5 4.91e-002 3.53e-001h  1
  93 8.8695186e-001 6.64e-001 2.32e-004  -7.5 2.17e-001  -5.2 1.00e+000 9.61e-001h  1
  94 8.8702038e-001 2.33e-001 9.93e-006  -7.5 6.08e-001  -5.7 1.00e+000 1.00e+000h  1
  95 8.8738400e-001 1.06e-001 2.04e-005  -7.3 1.56e+000  -6.2 1.00e+000 1.00e+000h  1
  96 8.8721702e-001 2.55e-002 4.05e-006  -7.4 5.69e-001  -5.7 1.00e+000 1.00e+000h  1
  97 8.8685391e-001 1.83e-001 1.43e-003  -7.7 1.50e+000  -6.2 5.87e-001 1.00e+000h  1
  98 8.8732151e-001 7.48e-001 3.12e-004  -7.3 6.15e+000  -6.7 1.00e+000 1.00e+000h  1
  99 8.8716075e-001 1.02e-001 1.62e-005  -7.4 1.83e+000  -6.3 1.00e+000 1.00e+000h  1
iter    objective    inf_pr   inf_du lg(mu)  ||d||  lg(rg) alpha_du alpha_pr  ls
 100 8.8768153e-001 1.71e-001 1.19e-004  -7.1 5.56e+000  -6.7 1.00e+000 1.00e+000h  1
 101 8.8743842e-001 3.57e-002 1.03e-005  -7.2 2.00e+000  -6.3 1.00e+000 1.00e+000h  1
 102 8.8742270e-001 9.61e-002 7.29e-005  -7.2 5.74e+000  -6.8 1.00e+000 1.00e+000h  1
 103 8.8739668e-001 4.02e+000 5.29e-004  -7.2 1.46e+001  -7.3 8.06e-001 6.74e-001h  1
 104 8.8738977e-001 1.95e+000 3.90e-004  -7.2 5.43e+000  -6.8 1.00e+000 6.16e-001h  1
 105 8.8738895e-001 2.09e+000 2.15e-003  -7.2 8.28e+000  -7.3 8.34e-001 7.63e-002h  1
 106 8.8738570e-001 2.19e+000 1.84e-005  -7.2 1.99e+000  -6.9 1.00e+000 1.00e+000h  1
 107 8.8737602e-001 8.88e+000 9.22e-005  -7.2 5.59e+000  -7.4 1.00e+000 1.00e+000h  1
 108 8.8737380e-001 4.91e-001 1.05e-005  -7.2 1.94e+000  -6.9 1.00e+000 1.00e+000h  1
 109 8.8737214e-001 4.56e-001 5.92e-004  -7.2 7.58e+000  -7.4 5.31e-001 2.31e-001h  1
iter    objective    inf_pr   inf_du lg(mu)  ||d||  lg(rg) alpha_du alpha_pr  ls
 110 8.8737171e-001 1.33e-002 1.76e-006  -7.2 2.88e-001  -6.1 1.00e+000 1.00e+000h  1
 111 8.8679539e-001 1.93e-001 3.77e-006  -7.6 9.10e-001  -6.6 1.00e+000 1.00e+000h  1
 112 8.8713259e-001 4.16e-001 1.08e-005  -7.3 2.74e+000  -7.1 1.00e+000 1.00e+000h  1
 113 8.8706304e-001 9.45e-001 8.89e-004  -7.4 7.05e+000  -7.5 1.00e+000 4.63e-001h  1
 114 8.8698485e-001 4.91e-001 3.16e-006  -7.4 2.74e+000  -7.1 1.00e+000 1.00e+000h  1
 115 8.8675963e-001 1.21e+001 1.67e-005  -7.6 7.18e+000  -7.6 9.84e-001 1.00e+000h  1
 116 8.8783301e-001 4.58e+000 3.12e-003  -6.9 1.63e+000  -7.2 2.33e-001 6.22e-001h  1
 117 8.8702859e-001 3.03e-001 2.51e-005  -7.4 3.06e-001  -5.8 1.00e+000 1.00e+000h  1
 118 8.8708182e-001 1.18e-001 3.36e-006  -7.4 1.57e-001  -6.3 1.00e+000 1.00e+000h  1
 119 8.8671644e-001 7.48e-002 5.75e-006  -7.7 8.52e-002  -5.9 1.00e+000 1.00e+000h  1
iter    objective    inf_pr   inf_du lg(mu)  ||d||  lg(rg) alpha_du alpha_pr  ls
 120 8.8654480e-001 1.52e-001 7.18e-006  -8.0 2.21e-001  -6.4 1.00e+000 1.00e+000h  1
 121 8.8665991e-001 6.46e-002 1.28e-006  -7.8 4.76e-001  -6.8 1.00e+000 1.00e+000h  1
 122 8.8651650e-001 7.56e-001 2.59e-006  -8.1 1.40e+000  -7.3 1.00e+000 1.00e+000h  1
 123 8.8651650e-001 8.57e-001 8.59e-004  -8.2 1.17e+001  -7.8 1.00e+000 3.12e-002h  6
 124 8.8647774e-001 1.79e+000 1.44e-004  -8.4 1.59e+000  -7.4 8.33e-001 1.00e+000h  1
 125 8.8657452e-001 3.96e+001 1.20e-003  -8.0 1.08e+001  -7.8 6.02e-001 1.00e+000h  1
 126 8.8653130e-001 1.22e+001 3.76e-004  -8.1 2.66e+001  -8.3 3.06e-002 6.89e-001h  1
 127 8.8651531e-001 9.95e-002 1.22e-004  -8.1 1.70e+001  -7.0 1.00e+000 1.00e+000h  1
 128 8.8645821e-001 4.72e-003 8.10e-007  -8.5 2.71e-001  -6.6 1.00e+000 1.00e+000h  1
 129 8.8644806e-001 1.33e-001 7.55e-007  -8.6 1.03e+000  -7.0 1.00e+000 1.00e+000h  1
iter    objective    inf_pr   inf_du lg(mu)  ||d||  lg(rg) alpha_du alpha_pr  ls
 130 8.8643559e-001 1.11e-001 5.04e-005  -8.8 3.83e+000  -7.5 9.48e-001 1.00e+000h  1
 131 8.8642038e-001 2.72e-001 2.35e-004  -9.4 1.69e+001  -8.0 5.91e-001 6.96e-001h  1
 132 8.8646215e-001 2.58e-001 4.07e-003  -7.6 9.30e-001  -7.6 5.97e-002 1.37e-001h  1
 133 8.8643560e-001 2.24e-003 7.15e-007  -8.7 3.61e-002  -6.2 1.00e+000 1.00e+000h  1
 134 8.8642698e-001 1.11e-002 3.22e-005  -8.9 1.66e-001  -6.7 1.00e+000 1.00e+000h  1
 135 8.8641643e-001 4.38e-001 9.84e-006  -9.3 2.63e-001  -7.2 1.00e+000 1.00e+000h  1
 136 8.8642203e-001 9.45e-001 5.77e-006  -9.0 3.33e-001  -6.8 1.00e+000 1.00e+000h  1
 137 8.8641951e-001 2.03e+000 4.23e-007  -9.1 3.98e-001  -6.3 1.00e+000 1.00e+000h  1
 138 8.8641939e-001 1.16e+000 2.82e-007  -9.1 2.35e-001  -5.9 1.00e+000 1.00e+000h  1
 139 8.8641931e-001 1.98e-001 2.68e-007  -9.1 8.33e-002  -5.5 1.00e+000 1.00e+000h  1
iter    objective    inf_pr   inf_du lg(mu)  ||d||  lg(rg) alpha_du alpha_pr  ls
 140 8.8641233e-001 5.68e+000 9.32e-007  -9.6 4.11e-001  -6.0 1.00e+000 1.00e+000h  1
 141 8.8641200e-001 6.31e+000 1.35e-004  -9.7 2.49e+000  -6.4 1.88e-001 8.32e-002h  1
 142 8.8641166e-001 5.77e+000 4.64e-004  -9.7 1.47e+000  -6.9 5.02e-001 1.69e-001h  1
 143 8.8641056e-001 7.79e+000 3.48e-004  -9.7 3.41e+001    -  3.24e-002 1.34e-001h  1
 144 8.8641047e-001 6.75e+000 3.29e-004  -9.7 8.04e-001  -6.5 1.89e-001 1.35e-001h  1
 145 8.8640994e-001 3.15e+000 4.67e-004  -9.7 2.27e+000  -7.0 4.34e-002 1.00e+000h  1
 146 8.8641438e-001 3.54e+000 1.29e-003  -8.5 6.15e+001    -  5.67e-002 1.24e-001h  1
 147 8.8641387e-001 3.13e+000 1.37e-003  -9.5 3.59e+001    -  4.67e-001 1.15e-001h  1
 148 8.8641150e-001 1.27e+000 3.29e-004  -9.5 4.36e+001    -  9.30e-002 6.01e-001h  1
 149 8.8640950e-001 8.02e-001 4.65e-004 -10.5 3.78e+001    -  5.06e-001 3.69e-001h  1
iter    objective    inf_pr   inf_du lg(mu)  ||d||  lg(rg) alpha_du alpha_pr  ls
 150 8.8641234e-001 7.00e-001 9.14e-004  -8.7 4.59e+001    -  2.40e-001 1.27e-001h  1
 151 8.8643195e-001 4.57e-001 1.12e-003  -8.3 2.96e+001    -  2.21e-001 3.47e-001h  1
 152 8.8642267e-001 2.26e-002 1.47e-007  -8.9 1.98e-001  -7.4 1.00e+000 1.00e+000h  1
 153 8.8641229e-001 2.68e-003 9.73e-008  -9.3 2.42e-001  -7.9 1.00e+000 1.00e+000h  1
 154 8.8642949e-001 3.53e-003 3.57e-003  -8.3 6.54e+001    -  5.42e-002 2.44e-001h  1
 155 8.8642678e-001 3.04e-003 3.34e-003  -9.2 2.14e+001    -  8.16e-001 1.85e-001h  1
 156 8.8642468e-001 2.60e-003 2.71e-003  -9.2 2.29e+001    -  6.82e-002 1.76e-001h  1
 157 8.8641669e-001 3.43e-003 4.52e-004  -9.2 2.30e+001    -  6.57e-001 8.13e-001h  1
 158 8.8641505e-001 1.39e-004 1.73e-005  -9.2 8.77e+000    -  1.00e+000 9.77e-001f  1
 159 8.8640859e-001 4.65e-004 6.46e-006  -9.7 6.39e+000    -  1.00e+000 1.00e+000f  1
iter    objective    inf_pr   inf_du lg(mu)  ||d||  lg(rg) alpha_du alpha_pr  ls
 160 8.8640685e-001 7.99e-005 6.79e-007 -10.2 2.31e+000    -  1.00e+000 1.00e+000h  1
 161 8.8640640e-001 1.33e-005 1.05e-008 -10.6 2.10e-001    -  1.00e+000 1.00e+000h  1
 162 8.8640618e-001 3.99e-006 2.45e-005 -11.0 1.31e-001    -  9.67e-001 1.00e+000h  1
 163 8.8640617e-001 8.99e-007 2.14e-011 -11.0 5.84e-003    -  1.00e+000 1.00e+000h  1

Number of Iterations....: 163

                                   (scaled)                 (unscaled)
Objective...............:  8.8640617026426127e-001   8.8640617026426127e-001
Dual infeasibility......:  2.1434474832099343e-011   2.1434474832099343e-011
Constraint violation....:  7.6685447484936138e-008   8.9882439624489052e-007
Complementarity.........:  1.1362370928681646e-011   1.1362370928681646e-011
Overall NLP error.......:  7.6685447484936138e-008   8.9882439624489052e-007


Number of objective function evaluations             = 181
Number of objective gradient evaluations             = 164
Number of equality constraint evaluations            = 181
Number of inequality constraint evaluations          = 181
Number of equality constraint Jacobian evaluations   = 164
Number of inequality constraint Jacobian evaluations = 164
Number of Lagrangian Hessian evaluations             = 163
Total CPU secs in IPOPT (w/o function evaluations)   =    225.677
Total CPU secs in NLP function evaluations           =   2133.873

EXIT: Optimal Solution Found.
